smt/acc-fold/bench/smt/append_sll_size_slk-2.smt
(set-logic QF_S)

(declare-sort node 0)
(declare-fun val () (Field node int))
(declare-fun next () (Field node node))

(declare-fun ll ((?in node) (?n int))
Space (tospace
(or
(= ?in nil)
(= ?n 0)
(exists ((?flted_7_21 int)) (tobool (ssep (pto ?in (sref (ref val ?Anon_12) (ref next ?q) )) (ll ?q ?flted_7_21)))
)))









(declare-fun xprm () node)
(declare-fun n1 () int)
(declare-fun yprm () node)
(declare-fun y () node)
(declare-fun x () node)
(declare-fun v_node_15_981prm () node)
(declare-fun Anon_1020 () int)
(declare-fun q_1021 () node)
(declare-fun flted_7_1019 () int)
(declare-fun n2 () int)


(assert 
(and 
(= flted_7_1019+1 n1)
lt(= y' y)
(= x' x)
(= v_node_15_981' q_1021)
(= v_node_15_981' nil)
(tobool (ssep 
(pto xprm (sref (ref val Anon_1020) (ref next q_1021) ))
(ll q_1021 flted_7_1019)
(ll y n2)
emp
) )
)
)

(assert (not 
(and 
(= flted_7_1019+1 n1)
lt(= y' y)
(= x' x)
(= v_node_15_981' q_1021)
(= v_node_15_981' nil)
(tobool (ssep 
(pto xprm (sref (ref val Anon_1020) (ref next q_1021) ))
(ll q_1021 flted_7_1019)
(ll y n2)
emp
) )
)
))

(check-sat)